15
1 0 27
2 0 6
2 1 31
3 0 19
3 1 5
3 2 1
4 0 25
4 1 11
4 2 37
4 3 3
5 0 8
5 1 6
5 2 37
5 3 19
5 4 1
6 0 29
6 1 6
6 2 41
6 3 10
6 4 39
6 5 11
7 0 20
7 1 18
7 2 5
7 3 7
7 4 14
7 5 36
7 6 26
8 0 17
8 1 28
8 2 9
8 3 36
8 4 11
8 5 29
8 6 14
8 7 6
9 0 18
9 1 41
9 2 23
9 3 25
9 4 30
9 5 15
9 6 32
9 7 20
9 8 18
10 0 29
10 1 16
10 2 36
10 3 37
10 4 39
10 5 20
10 6 24
10 7 41
10 8 17
10 9 40
11 0 36
11 1 40
11 2 38
11 3 39
11 4 29
11 5 4
11 6 19
11 7 38
11 8 35
11 9 12
11 10 7
12 0 40
12 1 17
12 2 15
12 3 23
12 4 39
12 5 20
12 6 26
12 7 14
12 8 10
12 9 3
12 10 40
12 11 23
13 0 39
13 1 5
13 2 36
13 3 28
13 4 40
13 5 9
13 6 30
13 7 23
13 8 33
13 9 37
13 10 21
13 11 9
13 12 2
14 0 10
14 1 27
14 2 6
14 3 27
14 4 23
14 5 29
14 6 18
14 7 19
14 8 38
14 9 5
14 10 1
14 11 31
14 12 17
14 13 9
